Version identifier: 20.1.0.0 | 2020-11-10 | 9bedb6d68
Tried aggregator 2 times.
MIP Presolve eliminated 1968 rows and 1086 columns.
MIP Presolve modified 4752 coefficients.
Aggregator did 199 substitutions.
Reduced MIP has 2852 rows, 2240 columns, and 9422 nonzeros.
Reduced MIP has 441 binaries, 1799 generals, 0 SOSs, and 0 indicators.
Presolve time = 0.03 sec. (11.15 ticks)
Probing fixed 60 vars, tightened 552 bounds.
Probing time = 0.00 sec. (2.11 ticks)
Tried aggregator 1 time.
Detecting symmetries...
MIP Presolve eliminated 1230 rows and 60 columns.
MIP Presolve modified 171 coefficients.
Reduced MIP has 1622 rows, 2180 columns, and 5432 nonzeros.
Reduced MIP has 499 binaries, 1681 generals, 0 SOSs, and 0 indicators.
Presolve time = 0.01 sec. (6.15 ticks)
Probing time = 0.00 sec. (0.47 ticks)
Clique table members: 125.
MIP emphasis: balance optimality and feasibility.
MIP search method: dynamic search.
Parallel mode: deterministic, using up to 24 threads.
Root relaxation solution time = 0.04 sec. (6.55 ticks)

        Nodes                                         Cuts/
   Node  Left     Objective  IInf  Best Integer    Best Bound    ItCnt     Gap

      0     0        0.0000    83                      0.0000      564         
      0     0        0.0000    99                   Cuts: 231      702         
*     0+    0                           23.0000        0.0000           100.00%
      0     0       -0.0000    78       23.0000      Cuts: 53     1151   69.57%
      0     0        0.0526   208       23.0000     Cuts: 138     1323   69.57%
*     0+    0                           14.0000        7.0000            50.00%
      0     0        cutoff             14.0000       14.0000     1323    0.00%
Elapsed time = 0.83 sec. (210.22 ticks, tree = 0.01 MB, solutions = 2)

Cover cuts applied:  5
Implied bound cuts applied:  105
Flow cuts applied:  2
Mixed integer rounding cuts applied:  23
Zero-half cuts applied:  56
Lift and project cuts applied:  20
Gomory fractional cuts applied:  24

Root node processing (before b&c):
  Real time             =    0.83 sec. (210.38 ticks)
Parallel b&c, 24 threads:
  Real time             =    0.00 sec. (0.00 ticks)
  Sync time (average)   =    0.00 sec.
  Wait time (average)   =    0.00 sec.
                          ------------
Total (root+branch&cut) =    0.83 sec. (210.38 ticks)

Solution status = Optimal
Solution LB = 14
Solution UB = 14
Runtime = 0.840112 seconds
	Command being timed: "/home/min/git_repos/CS598MEBProject/CNT-ILP/build/cnt -s 2 ./output/k8_n30/simC_c1_k8_n30_u1_s3_del02.input-right.cnp"
	User time (seconds): 10.37
	System time (seconds): 0.12
	Percent of CPU this job got: 1181%
	Elapsed (wall clock) time (h:mm:ss or m:ss): 0:00.88
	Average shared text size (kbytes): 0
	Average unshared data size (kbytes): 0
	Average stack size (kbytes): 0
	Average total size (kbytes): 0
	Maximum resident set size (kbytes): 136668
	Average resident set size (kbytes): 0
	Major (requiring I/O) page faults: 0
	Minor (reclaiming a frame) page faults: 32732
	Voluntary context switches: 5398
	Involuntary context switches: 1299
	Swaps: 0
	File system inputs: 0
	File system outputs: 16
	Socket messages sent: 0
	Socket messages received: 0
	Signals delivered: 0
	Page size (bytes): 4096
	Exit status: 0
